WARNING: for repeatability, setting FPU to use double precision
============================[ Problem Statistics ]=============================
|                                                                             |
|  Number of variables:           250                                         |
|  Number of clauses:            1065                                         |
|  Parse time:                   0.00 s                                       |
|  Eliminated clauses:           0.00 Mb                                      |
|  Simplification time:          0.00 s                                       |
|                                                                             |
============================[ Search Statistics ]==============================
| Conflicts |          ORIGINAL         |          LEARNT          | Progress |
|           |    Vars  Clauses Literals |    Limit  Clauses Lit/Cl |          |
===============================================================================
|       100 |     249     1056     3168 |      387      100     14 |  0.002 % |
|       250 |     249     1056     3168 |      425      250     15 |  0.002 % |
|       475 |     249     1056     3168 |      468      475     16 |  0.002 % |
|       812 |     249     1056     3168 |      515      339     20 |  0.002 % |
|      1318 |     249     1056     3168 |      566      339     19 |  0.002 % |
|      2077 |     249     1056     3168 |      623      532     18 |  0.002 % |
|      3216 |     249     1056     3168 |      685      440     18 |  0.002 % |
|      4924 |     249     1056     3168 |      754      112     16 |  0.002 % |
|      7486 |     249     1056     3168 |      829      418     18 |  0.002 % |
|     11330 |     249     1056     3168 |      912      211     16 |  0.002 % |
|     17096 |     249     1056     3168 |     1004      535     19 |  0.002 % |
|     25745 |     249     1056     3168 |     1104      252     18 |  0.002 % |
|     38719 |     249     1056     3168 |     1215      136     16 |  0.002 % |
|     58180 |     249     1056     3168 |     1336      425     16 |  0.002 % |
|     87372 |     249     1056     3168 |     1470      652     19 |  0.002 % |
===============================================================================
restarts              : 3
conflicts             : 90886          (178702 /sec)
decisions             : 165429         (82.03 % random) (325270 /sec)
propagations          : 3923094        (7713667 /sec)
conflict literals     : 1751015        (13.89 % deleted)
Memory used           : 27.00 MB
CPU time              : 0.50859 s

INDETERMINATE
